nNurses = 130;
nHours = 38;
minHours = 8;
maxHours = 8;
maxConsec = 8;
maxPresence = 19;
demand = [25, 23, 21, 26, 23, 26, 23, 23, 23, 19, 21, 24, 27, 23, 21, 20, 15, 12, 8, 9, 14, 17, 18, 19, 22, 25, 26, 23, 18, 23, 18, 20, 22, 23, 23, 22, 25, 24];
